p cnf 283 1058
20 -14 -10 0
-45 -24 -13 0
47 9 34 0
40 -4 10 0
-11 -30 33 0
31 17 4 0
-3 -22 7 0
7 -22 -18 0
36 -11 16 0
-10 27 16 0
39 35 4 0
-4 26 -12 0
41 -27 -28 0
26 44 -17 0
14 48 27 0
20 -1 3 0
14 -34 -44 0
-47 19 -18 0
14 -28 -38 0
37 -40 15 0
24 -45 -21 0
50 -25 26 0
-45 8 -24 0
-36 -27 39 0
-8 44 -1 0
50 -8 -1 0
17 -3 -36 0
-50 22 23 0
-23 6 -1 0
1 42 -38 0
-14 26 -4 0
5 -27 -29 0
16 -13 -21 0
-43 -36 15 0
-23 24 48 0
27 -11 32 0
-14 -9 4 0
-24 -47 -26 0
5 4 33 0
-28 29 44 0
-43 -29 35 0
-45 1 -21 0
-36 1 -48 0
-9 19 -50 0
48 18 47 0
2 -17 -29 0
-26 -22 49 0
-14 -45 18 0
-37 5 15 0
-5 -38 24 0
-6 -34 9 0
-6 30 -1 0
43 -46 -25 0
-47 20 31 0
-12 -42 -18 0
32 -50 -3 0
-19 -26 30 0
47 -24 -19 0
46 -39 9 0
25 -39 9 0
-6 -12 -38 0
32 -29 -35 0
-40 -29 -5 0
-14 -36 6 0
-33 1 -30 0
17 16 -4 0
-39 -50 -22 0
-18 -23 35 0
46 37 42 0
27 -47 38 0
-23 -19 21 0
-18 14 41 0
-15 -9 -47 0
18 39 -11 0
48 -19 6 0
41 1 -3 0
44 -38 -18 0
5 -33 -16 0
34 2 -25 0
38 -15 36 0
11 -48 3 0
12 -37 -17 0
-27 5 17 0
29 -21 10 0
-46 50 45 0
-42 -36 -24 0
36 -14 35 0
43 -28 37 0
-26 -48 47 0
12 6 26 0
-21 32 7 0
-14 -11 27 0
-45 -16 9 0
-15 -2 -30 0
-11 -18 32 0
50 -5 22 0
-6 7 -37 0
27 37 -1 0
-9 27 -6 0
-47 -44 -48 0
2 -3 51 0
-2 -3 -51 0
2 3 -51 0
-2 3 51 0
4 -5 52 0
-4 -5 -52 0
4 5 -52 0
-4 5 52 0
6 8 53 0
-6 8 -53 0
6 -8 -53 0
-6 -8 53 0
-10 11 54 0
10 11 -54 0
-10 -11 -54 0
10 -11 54 0
-13 -14 55 0
13 -14 -55 0
-13 14 -55 0
13 14 55 0
-17 19 56 0
17 19 -56 0
-17 -19 -56 0
17 -19 56 0
-21 -22 57 0
21 -22 -57 0
-21 22 -57 0
21 22 57 0
24 25 58 0
-24 25 -58 0
24 -25 -58 0
-24 -25 58 0
26 28 59 0
-26 28 -59 0
26 -28 -59 0
-26 -28 59 0
-29 30 60 0
29 30 -60 0
-29 -30 -60 0
29 -30 60 0
31 33 61 0
-31 33 -61 0
31 -33 -61 0
-31 -33 61 0
40 42 62 0
-40 42 -62 0
40 -42 -62 0
-40 -42 62 0
44 -50 63 0
-44 -50 -63 0
44 50 -63 0
-44 50 63 0
51 -52 64 0
-51 -52 -64 0
51 52 -64 0
-51 52 64 0
53 -54 65 0
-53 -54 -65 0
53 54 -65 0
-53 54 65 0
55 -56 66 0
-55 -56 -66 0
55 56 -66 0
-55 56 66 0
57 -58 67 0
-57 -58 -67 0
57 58 -67 0
-57 58 67 0
59 -60 68 0
-59 -60 -68 0
59 60 -68 0
-59 60 68 0
61 -62 69 0
-61 -62 -69 0
61 62 -69 0
-61 62 69 0
63 -64 70 0
-63 -64 -70 0
63 64 -70 0
-63 64 70 0
65 -66 71 0
-65 -66 -71 0
65 66 -71 0
-65 66 71 0
67 -68 72 0
-67 -68 -72 0
67 68 -72 0
-67 68 72 0
69 -70 73 0
-69 -70 -73 0
69 70 -73 0
-69 70 73 0
71 -72 74 0
-71 -72 -74 0
71 72 -74 0
-71 72 74 0
73 74 0
-73 -74 0
2 -3 75 0
-2 -3 -75 0
2 3 -75 0
-2 3 75 0
4 6 76 0
-4 6 -76 0
4 -6 -76 0
-4 -6 76 0
7 11 77 0
-7 11 -77 0
7 -11 -77 0
-7 -11 77 0
13 -15 78 0
-13 -15 -78 0
13 15 -78 0
-13 15 78 0
16 17 79 0
-16 17 -79 0
16 -17 -79 0
-16 -17 79 0
-18 22 80 0
18 22 -80 0
-18 -22 -80 0
18 -22 80 0
23 -25 81 0
-23 -25 -81 0
23 25 -81 0
-23 25 81 0
-26 -27 82 0
26 -27 -82 0
-26 27 -82 0
26 27 82 0
-28 -30 83 0
28 -30 -83 0
-28 30 -83 0
28 30 83 0
32 34 84 0
-32 34 -84 0
32 -34 -84 0
-32 -34 84 0
-36 37 85 0
36 37 -85 0
-36 -37 -85 0
36 -37 85 0
39 40 86 0
-39 40 -86 0
39 -40 -86 0
-39 -40 86 0
-41 44 87 0
41 44 -87 0
-41 -44 -87 0
41 -44 87 0
-47 48 88 0
47 48 -88 0
-47 -48 -88 0
47 -48 88 0
74 -75 89 0
-74 -75 -89 0
74 75 -89 0
-74 75 89 0
76 -77 90 0
-76 -77 -90 0
76 77 -90 0
-76 77 90 0
78 -79 91 0
-78 -79 -91 0
78 79 -91 0
-78 79 91 0
80 -81 92 0
-80 -81 -92 0
80 81 -92 0
-80 81 92 0
82 -83 93 0
-82 -83 -93 0
82 83 -93 0
-82 83 93 0
84 -85 94 0
-84 -85 -94 0
84 85 -94 0
-84 85 94 0
86 -87 95 0
-86 -87 -95 0
86 87 -95 0
-86 87 95 0
88 -89 96 0
-88 -89 -96 0
88 89 -96 0
-88 89 96 0
90 -91 97 0
-90 -91 -97 0
90 91 -97 0
-90 91 97 0
92 -93 98 0
-92 -93 -98 0
92 93 -98 0
-92 93 98 0
94 -95 99 0
-94 -95 -99 0
94 95 -99 0
-94 95 99 0
96 -97 100 0
-96 -97 -100 0
96 97 -100 0
-96 97 100 0
98 -99 101 0
-98 -99 -101 0
98 99 -101 0
-98 99 101 0
100 101 0
-100 -101 0
-1 -2 102 0
1 -2 -102 0
-1 2 -102 0
1 2 102 0
-3 11 103 0
3 11 -103 0
-3 -11 -103 0
3 -11 103 0
-12 13 104 0
12 13 -104 0
-12 -13 -104 0
12 -13 104 0
14 15 105 0
-14 15 -105 0
14 -15 -105 0
-14 -15 105 0
16 17 106 0
-16 17 -106 0
16 -17 -106 0
-16 -17 106 0
-25 27 107 0
25 27 -107 0
-25 -27 -107 0
25 -27 107 0
28 30 108 0
-28 30 -108 0
28 -30 -108 0
-28 -30 108 0
32 35 109 0
-32 35 -109 0
32 -35 -109 0
-32 -35 109 0
36 -37 110 0
-36 -37 -110 0
36 37 -110 0
-36 37 110 0
-38 39 111 0
38 39 -111 0
-38 -39 -111 0
38 -39 111 0
40 -42 112 0
-40 -42 -112 0
40 42 -112 0
-40 42 112 0
44 -47 113 0
-44 -47 -113 0
44 47 -113 0
-44 47 113 0
-48 50 114 0
48 50 -114 0
-48 -50 -114 0
48 -50 114 0
102 -103 115 0
-102 -103 -115 0
102 103 -115 0
-102 103 115 0
104 -105 116 0
-104 -105 -116 0
104 105 -116 0
-104 105 116 0
106 -107 117 0
-106 -107 -117 0
106 107 -117 0
-106 107 117 0
108 -109 118 0
-108 -109 -118 0
108 109 -118 0
-108 109 118 0
110 -111 119 0
-110 -111 -119 0
110 111 -119 0
-110 111 119 0
112 -113 120 0
-112 -113 -120 0
112 113 -120 0
-112 113 120 0
114 -115 121 0
-114 -115 -121 0
114 115 -121 0
-114 115 121 0
116 -117 122 0
-116 -117 -122 0
116 117 -122 0
-116 117 122 0
118 -119 123 0
-118 -119 -123 0
118 119 -123 0
-118 119 123 0
120 -121 124 0
-120 -121 -124 0
120 121 -124 0
-120 121 124 0
122 -123 125 0
-122 -123 -125 0
122 123 -125 0
-122 123 125 0
124 125 0
-124 -125 0
5 6 126 0
-5 6 -126 0
5 -6 -126 0
-5 -6 126 0
-8 9 127 0
8 9 -127 0
-8 -9 -127 0
8 -9 127 0
-11 12 128 0
11 12 -128 0
-11 -12 -128 0
11 -12 128 0
13 -14 129 0
-13 -14 -129 0
13 14 -129 0
-13 14 129 0
-15 -17 130 0
15 -17 -130 0
-15 17 -130 0
15 17 130 0
19 -21 131 0
-19 -21 -131 0
19 21 -131 0
-19 21 131 0
23 24 132 0
-23 24 -132 0
23 -24 -132 0
-23 -24 132 0
25 30 133 0
-25 30 -133 0
25 -30 -133 0
-25 -30 133 0
-33 -34 134 0
33 -34 -134 0
-33 34 -134 0
33 34 134 0
35 -36 135 0
-35 -36 -135 0
35 36 -135 0
-35 36 135 0
-39 -40 136 0
39 -40 -136 0
-39 40 -136 0
39 40 136 0
-43 -45 137 0
43 -45 -137 0
-43 45 -137 0
43 45 137 0
125 -126 138 0
-125 -126 -138 0
125 126 -138 0
-125 126 138 0
127 -128 139 0
-127 -128 -139 0
127 128 -139 0
-127 128 139 0
129 -130 140 0
-129 -130 -140 0
129 130 -140 0
-129 130 140 0
131 -132 141 0
-131 -132 -141 0
131 132 -141 0
-131 132 141 0
133 -134 142 0
-133 -134 -142 0
133 134 -142 0
-133 134 142 0
135 -136 143 0
-135 -136 -143 0
135 136 -143 0
-135 136 143 0
137 -138 144 0
-137 -138 -144 0
137 138 -144 0
-137 138 144 0
139 -140 145 0
-139 -140 -145 0
139 140 -145 0
-139 140 145 0
141 -142 146 0
-141 -142 -146 0
141 142 -146 0
-141 142 146 0
143 -144 147 0
-143 -144 -147 0
143 144 -147 0
-143 144 147 0
145 -146 148 0
-145 -146 -148 0
145 146 -148 0
-145 146 148 0
147 148 0
-147 -148 0
-2 -4 149 0
2 -4 -149 0
-2 4 -149 0
2 4 149 0
5 8 150 0
-5 8 -150 0
5 -8 -150 0
-5 -8 150 0
10 -11 151 0
-10 -11 -151 0
10 11 -151 0
-10 11 151 0
-13 16 152 0
13 16 -152 0
-13 -16 -152 0
13 -16 152 0
18 -19 153 0
-18 -19 -153 0
18 19 -153 0
-18 19 153 0
-20 23 154 0
20 23 -154 0
-20 -23 -154 0
20 -23 154 0
25 27 155 0
-25 27 -155 0
25 -27 -155 0
-25 -27 155 0
28 29 156 0
-28 29 -156 0
28 -29 -156 0
-28 -29 156 0
31 -33 157 0
-31 -33 -157 0
31 33 -157 0
-31 33 157 0
-34 -35 158 0
34 -35 -158 0
-34 35 -158 0
34 35 158 0
-41 43 159 0
41 43 -159 0
-41 -43 -159 0
41 -43 159 0
44 -45 160 0
-44 -45 -160 0
44 45 -160 0
-44 45 160 0
-46 47 161 0
46 47 -161 0
-46 -47 -161 0
46 -47 161 0
-48 -49 162 0
48 -49 -162 0
-48 49 -162 0
48 49 162 0
148 -149 163 0
-148 -149 -163 0
148 149 -163 0
-148 149 163 0
150 -151 164 0
-150 -151 -164 0
150 151 -164 0
-150 151 164 0
152 -153 165 0
-152 -153 -165 0
152 153 -165 0
-152 153 165 0
154 -155 166 0
-154 -155 -166 0
154 155 -166 0
-154 155 166 0
156 -157 167 0
-156 -157 -167 0
156 157 -167 0
-156 157 167 0
158 -159 168 0
-158 -159 -168 0
158 159 -168 0
-158 159 168 0
160 -161 169 0
-160 -161 -169 0
160 161 -169 0
-160 161 169 0
162 -163 170 0
-162 -163 -170 0
162 163 -170 0
-162 163 170 0
164 -165 171 0
-164 -165 -171 0
164 165 -171 0
-164 165 171 0
166 -167 172 0
-166 -167 -172 0
166 167 -172 0
-166 167 172 0
168 -169 173 0
-168 -169 -173 0
168 169 -173 0
-168 169 173 0
170 -171 174 0
-170 -171 -174 0
170 171 -174 0
-170 171 174 0
172 -173 175 0
-172 -173 -175 0
172 173 -175 0
-172 173 175 0
174 175 0
-174 -175 0
-2 -3 176 0
2 -3 -176 0
-2 3 -176 0
2 3 176 0
7 11 177 0
-7 11 -177 0
7 -11 -177 0
-7 -11 177 0
-13 -14 178 0
13 -14 -178 0
-13 14 -178 0
13 14 178 0
15 16 179 0
-15 16 -179 0
15 -16 -179 0
-15 -16 179 0
20 21 180 0
-20 21 -180 0
20 -21 -180 0
-20 -21 180 0
22 -23 181 0
-22 -23 -181 0
22 23 -181 0
-22 23 181 0
-29 30 182 0
29 30 -182 0
-29 -30 -182 0
29 -30 182 0
-34 40 183 0
34 40 -183 0
-34 -40 -183 0
34 -40 183 0
-43 -44 184 0
43 -44 -184 0
-43 44 -184 0
43 44 184 0
-48 49 185 0
48 49 -185 0
-48 -49 -185 0
48 -49 185 0
175 -176 186 0
-175 -176 -186 0
175 176 -186 0
-175 176 186 0
177 -178 187 0
-177 -178 -187 0
177 178 -187 0
-177 178 187 0
179 -180 188 0
-179 -180 -188 0
179 180 -188 0
-179 180 188 0
181 -182 189 0
-181 -182 -189 0
181 182 -189 0
-181 182 189 0
183 -184 190 0
-183 -184 -190 0
183 184 -190 0
-183 184 190 0
185 -186 191 0
-185 -186 -191 0
185 186 -191 0
-185 186 191 0
187 -188 192 0
-187 -188 -192 0
187 188 -192 0
-187 188 192 0
189 -190 193 0
-189 -190 -193 0
189 190 -193 0
-189 190 193 0
-191 -192 193 0
191 -192 -193 0
-191 192 -193 0
191 192 193 0
-1 -2 194 0
1 -2 -194 0
-1 2 -194 0
1 2 194 0
4 -6 195 0
-4 -6 -195 0
4 6 -195 0
-4 6 195 0
8 13 196 0
-8 13 -196 0
8 -13 -196 0
-8 -13 196 0
-17 18 197 0
17 18 -197 0
-17 -18 -197 0
17 -18 197 0
22 -23 198 0
-22 -23 -198 0
22 23 -198 0
-22 23 198 0
25 -28 199 0
-25 -28 -199 0
25 28 -199 0
-25 28 199 0
-29 31 200 0
29 31 -200 0
-29 -31 -200 0
29 -31 200 0
32 -35 201 0
-32 -35 -201 0
32 35 -201 0
-32 35 201 0
-36 39 202 0
36 39 -202 0
-36 -39 -202 0
36 -39 202 0
40 -41 203 0
-40 -41 -203 0
40 41 -203 0
-40 41 203 0
-42 43 204 0
42 43 -204 0
-42 -43 -204 0
42 -43 204 0
44 -46 205 0
-44 -46 -205 0
44 46 -205 0
-44 46 205 0
-47 -48 206 0
47 -48 -206 0
-47 48 -206 0
47 48 206 0
49 50 207 0
-49 50 -207 0
49 -50 -207 0
-49 -50 207 0
194 -195 208 0
-194 -195 -208 0
194 195 -208 0
-194 195 208 0
196 -197 209 0
-196 -197 -209 0
196 197 -209 0
-196 197 209 0
198 -199 210 0
-198 -199 -210 0
198 199 -210 0
-198 199 210 0
200 -201 211 0
-200 -201 -211 0
200 201 -211 0
-200 201 211 0
202 -203 212 0
-202 -203 -212 0
202 203 -212 0
-202 203 212 0
204 -205 213 0
-204 -205 -213 0
204 205 -213 0
-204 205 213 0
206 -207 214 0
-206 -207 -214 0
206 207 -214 0
-206 207 214 0
208 -209 215 0
-208 -209 -215 0
208 209 -215 0
-208 209 215 0
210 -211 216 0
-210 -211 -216 0
210 211 -216 0
-210 211 216 0
212 -213 217 0
-212 -213 -217 0
212 213 -217 0
-212 213 217 0
214 -215 218 0
-214 -215 -218 0
214 215 -218 0
-214 215 218 0
216 -217 219 0
-216 -217 -219 0
216 217 -219 0
-216 217 219 0
218 219 0
-218 -219 0
-3 7 220 0
3 7 -220 0
-3 -7 -220 0
3 -7 220 0
-8 9 221 0
8 9 -221 0
-8 -9 -221 0
8 -9 221 0
10 -11 222 0
-10 -11 -222 0
10 11 -222 0
-10 11 222 0
-14 -15 223 0
14 -15 -223 0
-14 15 -223 0
14 15 223 0
-16 17 224 0
16 17 -224 0
-16 -17 -224 0
16 -17 224 0
18 -19 225 0
-18 -19 -225 0
18 19 -225 0
-18 19 225 0
-23 25 226 0
23 25 -226 0
-23 -25 -226 0
23 -25 226 0
-26 -28 227 0
26 -28 -227 0
-26 28 -227 0
26 28 227 0
-29 33 228 0
29 33 -228 0
-29 -33 -228 0
29 -33 228 0
36 -38 229 0
-36 -38 -229 0
36 38 -229 0
-36 38 229 0
-43 45 230 0
43 45 -230 0
-43 -45 -230 0
43 -45 230 0
219 -220 231 0
-219 -220 -231 0
219 220 -231 0
-219 220 231 0
221 -222 232 0
-221 -222 -232 0
221 222 -232 0
-221 222 232 0
223 -224 233 0
-223 -224 -233 0
223 224 -233 0
-223 224 233 0
225 -226 234 0
-225 -226 -234 0
225 226 -234 0
-225 226 234 0
227 -228 235 0
-227 -228 -235 0
227 228 -235 0
-227 228 235 0
229 -230 236 0
-229 -230 -236 0
229 230 -236 0
-229 230 236 0
231 -232 237 0
-231 -232 -237 0
231 232 -237 0
-231 232 237 0
233 -234 238 0
-233 -234 -238 0
233 234 -238 0
-233 234 238 0
235 -236 239 0
-235 -236 -239 0
235 236 -239 0
-235 236 239 0
-237 -238 239 0
237 -238 -239 0
-237 238 -239 0
237 238 239 0
-1 2 240 0
1 2 -240 0
-1 -2 -240 0
1 -2 240 0
-3 10 241 0
3 10 -241 0
-3 -10 -241 0
3 -10 241 0
12 -13 242 0
-12 -13 -242 0
12 13 -242 0
-12 13 242 0
14 -15 243 0
-14 -15 -243 0
14 15 -243 0
-14 15 243 0
16 17 244 0
-16 17 -244 0
16 -17 -244 0
-16 -17 244 0
19 20 245 0
-19 20 -245 0
19 -20 -245 0
-19 -20 245 0
-21 -24 246 0
21 -24 -246 0
-21 24 -246 0
21 24 246 0
-25 31 247 0
25 31 -247 0
-25 -31 -247 0
25 -31 247 0
32 -34 248 0
-32 -34 -248 0
32 34 -248 0
-32 34 248 0
-35 -38 249 0
35 -38 -249 0
-35 38 -249 0
35 38 249 0
39 -41 250 0
-39 -41 -250 0
39 41 -250 0
-39 41 250 0
42 -44 251 0
-42 -44 -251 0
42 44 -251 0
-42 44 251 0
46 47 252 0
-46 47 -252 0
46 -47 -252 0
-46 -47 252 0
48 -49 253 0
-48 -49 -253 0
48 49 -253 0
-48 49 253 0
240 -241 254 0
-240 -241 -254 0
240 241 -254 0
-240 241 254 0
242 -243 255 0
-242 -243 -255 0
242 243 -255 0
-242 243 255 0
244 -245 256 0
-244 -245 -256 0
244 245 -256 0
-244 245 256 0
246 -247 257 0
-246 -247 -257 0
246 247 -257 0
-246 247 257 0
248 -249 258 0
-248 -249 -258 0
248 249 -258 0
-248 249 258 0
250 -251 259 0
-250 -251 -259 0
250 251 -259 0
-250 251 259 0
252 -253 260 0
-252 -253 -260 0
252 253 -260 0
-252 253 260 0
254 -255 261 0
-254 -255 -261 0
254 255 -261 0
-254 255 261 0
256 -257 262 0
-256 -257 -262 0
256 257 -262 0
-256 257 262 0
258 -259 263 0
-258 -259 -263 0
258 259 -263 0
-258 259 263 0
260 -261 264 0
-260 -261 -264 0
260 261 -264 0
-260 261 264 0
262 -263 265 0
-262 -263 -265 0
262 263 -265 0
-262 263 265 0
264 265 0
-264 -265 0
1 -2 266 0
-1 -2 -266 0
1 2 -266 0
-1 2 266 0
4 8 267 0
-4 8 -267 0
4 -8 -267 0
-4 -8 267 0
11 -12 268 0
-11 -12 -268 0
11 12 -268 0
-11 12 268 0
14 15 269 0
-14 15 -269 0
14 -15 -269 0
-14 -15 269 0
-16 20 270 0
16 20 -270 0
-16 -20 -270 0
16 -20 270 0
-26 28 271 0
26 28 -271 0
-26 -28 -271 0
26 -28 271 0
-30 33 272 0
30 33 -272 0
-30 -33 -272 0
30 -33 272 0
36 -40 273 0
-36 -40 -273 0
36 40 -273 0
-36 40 273 0
-44 45 274 0
44 45 -274 0
-44 -45 -274 0
44 -45 274 0
46 47 275 0
-46 47 -275 0
46 -47 -275 0
-46 -47 275 0
265 -266 276 0
-265 -266 -276 0
265 266 -276 0
-265 266 276 0
267 -268 277 0
-267 -268 -277 0
267 268 -277 0
-267 268 277 0
269 -270 278 0
-269 -270 -278 0
269 270 -278 0
-269 270 278 0
271 -272 279 0
-271 -272 -279 0
271 272 -279 0
-271 272 279 0
273 -274 280 0
-273 -274 -280 0
273 274 -280 0
-273 274 280 0
275 -276 281 0
-275 -276 -281 0
275 276 -281 0
-275 276 281 0
277 -278 282 0
-277 -278 -282 0
277 278 -282 0
-277 278 282 0
279 -280 283 0
-279 -280 -283 0
279 280 -283 0
-279 280 283 0
-281 -282 283 0
281 -282 -283 0
-281 282 -283 0
281 282 283 0
